1652.0 20857.0 46.0 
1751.0 20458.0 220.0 
1621.0 20554.0 154.0 
1585.0 21413.0 156.0 
1699.0 20500.0 220.0 
1652.0 20857.0 46.0 
1619.0 20787.0 507.0 
1652.0 20857.0 46.0 
1621.0 20537.0 161.0 
1639.0 20903.0 46.0 
1585.0 21401.0 221.0 
1619.0 21022.0 0.0 
1617.0 21327.0 0.0 
1614.0 21265.0 46.0 
1596.0 20964.0 150.0 
1583.0 21391.0 602.0 
1630.0 20955.0 0.0 
1584.0 21404.0 533.0 
1596.0 20964.0 150.0 
1577.0 21427.0 535.0 
1630.0 20879.0 65.0 
1613.0 21204.0 50.0 
1619.0 21022.0 0.0 
1611.0 20945.0 150.0 
1611.0 21198.0 64.0 
1611.0 21027.0 118.0 
1689.0 20486.0 288.0 
1641.0 20385.0 349.0 
1602.0 21041.0 118.0 
1641.0 20526.0 283.0 
1590.0 20835.0 358.0 
